NAME          milp_4_20_10_0110   
ROWS
 N  OBJROW
 G  R0000000
 G  R0000001
 G  R0000002
 G  R0000003
COLUMNS
    C0000000  OBJROW     -1.           R0000001   -8.        
    C0000000  R0000002   -5.           R0000003   -3.        
    C0000001  OBJROW     -5.           R0000000   -8.        
    C0000001  R0000001   -7.           R0000003   -1.        
    C0000002  OBJROW     -9.           R0000000   -3.        
    C0000002  R0000001   -1.        
    C0000003  OBJROW     -3.           R0000000   -6.        
    C0000003  R0000003   -9.        
    C0000004  OBJROW     -5.           R0000000   -3.        
    C0000004  R0000001   -5.           R0000002   -9.        
    C0000004  R0000003   -5.        
    C0000005  OBJROW     -6.           R0000000   -2.        
    C0000005  R0000001   -10.          R0000002   -4.        
    C0000005  R0000003   -1.        
    C0000006  OBJROW     -2.           R0000000   -5.        
    C0000006  R0000001   -2.           R0000003   -9.        
    C0000007  OBJROW     -6.           R0000001   -3.        
    C0000007  R0000002   -2.           R0000003   -6.        
    C0000008  OBJROW     -1.           R0000000   -9.        
    C0000008  R0000001   -2.           R0000003   -8.        
    C0000009  OBJROW     -6.           R0000000   -2.        
    C0000009  R0000001   -10.          R0000003   -5.        
    C0000010  OBJROW     -2.           R0000001   -10.       
    C0000010  R0000002   -7.           R0000003   -6.        
    C0000011  OBJROW     -2.           R0000000   -4.        
    C0000011  R0000001   -6.           R0000002   -10.       
    C0000011  R0000003   -8.        
    C0000012  OBJROW     -9.           R0000000   -2.        
    C0000012  R0000002   -1.           R0000003   -10.       
    C0000013  OBJROW     -4.           R0000000   -10.       
    C0000013  R0000001   -10.          R0000002   -3.        
    C0000013  R0000003   -7.        
    C0000014  OBJROW     -8.           R0000000   -5.        
    C0000014  R0000001   -3.           R0000002   -2.        
    C0000014  R0000003   -5.        
    C0000015  OBJROW     -9.           R0000000   -3.        
    C0000015  R0000002   -2.        
    C0000016  OBJROW     -9.           R0000001   -10.       
    C0000016  R0000002   -8.           R0000003   -2.        
    C0000017  OBJROW     -4.           R0000000   -3.        
    C0000017  R0000001   -10.          R0000003   -8.        
    C0000018  OBJROW     -3.           R0000000   -2.        
    C0000018  R0000001   -5.           R0000002   -4.        
    C0000018  R0000003   -6.        
    C0000019  OBJROW     -3.           R0000000   -7.        
    C0000019  R0000001   -9.           R0000002   -4.        
    C0000019  R0000003   -6.        
RHS
    RHS       R0000000   -116.         R0000001   -151.      
    RHS       R0000002   -90.          R0000003   -124.      
BOUNDS
 UI BOUND     C0000000         1e+30
 UI BOUND     C0000001         1e+30
 UI BOUND     C0000002         1e+30
 UI BOUND     C0000003         1e+30
 UI BOUND     C0000004         1e+30
 UI BOUND     C0000005         1e+30
 UI BOUND     C0000006         1e+30
 UI BOUND     C0000007         1e+30
 UI BOUND     C0000008         1e+30
 UI BOUND     C0000009         1e+30
 UI BOUND     C0000010         1e+30
 UI BOUND     C0000011         1e+30
 UI BOUND     C0000012         1e+30
 UI BOUND     C0000013         1e+30
 UI BOUND     C0000014         1e+30
 UI BOUND     C0000015         1e+30
 UI BOUND     C0000016         1e+30
 UI BOUND     C0000017         1e+30
 UI BOUND     C0000018         1e+30
 UI BOUND     C0000019         1e+30
ENDATA
